32
A-234  B3LYP-D3BJ/def2-TZVP optimised  E=-1016.877815502810 Eh  imaginary_modes=0
F      2.76825600   -0.83048200   -2.66212900
P      1.72304500    0.07383400   -1.90681600
O      1.11148500    1.06002800   -2.79784700
O      2.65468800    0.74631400   -0.80353900
C      3.42257000   -0.04169500    0.12879300
C      4.11008700    0.90288100    1.08741000
N      0.80964800   -1.05089200   -1.18977700
C     -0.44133700   -1.13675200   -0.86594500
C     -1.02410200   -2.53260700   -0.86812900
N     -1.26413200   -0.11919800   -0.51992500
C     -0.76162700    1.25441600   -0.37008800
C     -1.41642800    2.04002100    0.75833500
C     -2.72332100   -0.29517400   -0.52087000
C     -3.34199300   -0.62737900    0.83476500
H      2.74989000   -0.72500800    0.65262800
H      4.14718600   -0.63711600   -0.43078100
H      4.76574800    1.58791000    0.54873700
H      4.71127100    0.33562400    1.80101700
H      3.37819300    1.49155100    1.64260100
H     -1.74463800   -2.71311800   -0.07366800
H     -1.51685100   -2.71703800   -1.82668700
H     -0.19938700   -3.23384300   -0.78407500
H     -0.85814900    1.78293100   -1.32034200
H      0.30087200    1.18910000   -0.15920700
H     -2.48166100    2.20949100    0.59896900
H     -1.28263500    1.54642500    1.72222900
H     -0.93753800    3.01879100    0.81164700
H     -2.98204800   -1.06553500   -1.24426700
H     -3.15173900    0.63125100   -0.90646000
H     -3.17815700    0.16775000    1.55883100
H     -2.92794000   -1.54678800    1.24911200
H     -4.41925900   -0.76569400    0.72032300
