28
A-230  B3LYP-D3BJ/def2-TZVP optimised  E=-902.332205919036 Eh  imaginary_modes=0
C      3.56158300   -0.95027700    0.30856100
P      2.62475300    0.41024100   -0.40689800
O      2.57479000    1.61943000    0.43355000
F      3.47226500    0.69835500   -1.71464800
N      1.29503400   -0.24884400   -1.03421100
C      0.00854400   -0.31399900   -0.98638100
C     -0.66460300   -0.97522900   -2.17385100
N     -0.79933600    0.13004000    0.00133400
C     -2.25606000   -0.02367000   -0.04615900
C     -2.74622700   -1.29576200    0.64040100
C     -0.29907400    0.77964600    1.21669900
C     -0.36515800    2.29952600    1.14397400
H      4.55003700   -0.58735900    0.59090600
H      3.65795000   -1.77086700   -0.40087500
H      3.04893700   -1.30390800    1.20346700
H      0.11067300   -1.41121900   -2.79457800
H     -1.20460300   -0.23236900   -2.76584100
H     -1.37344400   -1.74957700   -1.88129500
H     -2.59781500    0.01008100   -1.07712100
H     -2.68601200    0.85020500    0.44496100
H     -2.42767800   -1.32688100    1.68329600
H     -3.83680000   -1.33959000    0.62009000
H     -2.35967800   -2.18715000    0.14462400
H      0.72558700    0.47120200    1.39097900
H     -0.90150000    0.40749000    2.04873100
H      0.29646700    2.66527000    0.36206500
H     -1.38394400    2.64836500    0.96012700
H     -0.02468800    2.72684900    2.08809200
