29
A-232  B3LYP-D3BJ/def2-TZVP optimised  E=-977.573490733617 Eh  imaginary_modes=0
F      1.40948900   -0.38467600    2.63896200
P      1.87761700   -0.82985600    1.20179200
O      1.58531100   -2.23987600    0.91922200
O      3.41685700   -0.49401100    1.40341700
C      4.32712700   -0.79224700    0.34020800
N      1.33486700    0.27894200    0.17264900
C      0.27561500    0.60715800   -0.49015600
C      0.50209600    1.52311800   -1.67550600
N     -0.99777000    0.23266500   -0.24244400
C     -1.38350300   -0.64461800    0.86883800
C     -1.57190200   -2.09592800    0.44387900
C     -2.12743900    0.71644400   -1.04213600
C     -2.76576600    1.97959700   -0.47092800
H      4.10576800   -0.17127700   -0.53055100
H      5.32345400   -0.56328400    0.71108400
H      4.26491600   -1.84708000    0.06899000
H      0.32342300    0.98544700   -2.60985700
H      1.53779100    1.84462800   -1.65392900
H     -0.14593600    2.39905600   -1.66438600
H     -0.64608400   -0.56634100    1.65971000
H     -2.31349400   -0.24465800    1.27924800
H     -1.92089600   -2.68335700    1.29500100
H     -0.62588100   -2.51763400    0.11074700
H     -2.31583000   -2.18237900   -0.35121200
H     -2.86281800   -0.08824900   -1.07360700
H     -1.81109300    0.87778800   -2.06920900
H     -2.05864900    2.80989400   -0.45890900
H     -3.11010900    1.81787500    0.55140200
H     -3.62716100    2.27286000   -1.07402200
