39
A-242  B3LYP-D3BJ/def2-TZVP optimised  E=-1075.590908603220 Eh  imaginary_modes=0
C     -0.55370300    3.60490800    1.56211600
P     -0.09623400    2.90357300   -0.03059000
O     -1.10566700    3.06287200   -1.09397700
F      1.19235500    3.77649400   -0.35249000
N      0.55906000    1.44955100    0.25108300
C      0.29037800    0.28961700   -0.28040800
N     -0.97977600   -0.19854700   -0.54803600
C     -2.11960100    0.34089900    0.20510000
C     -2.00974800    0.09541200    1.70328500
C     -1.29410000   -0.58146000   -1.93381500
C     -2.11843200   -1.85830000   -2.05038300
N      1.32340700   -0.55310500   -0.55489600
C      2.68729100   -0.01760300   -0.55278300
C      3.39512700   -0.13926000    0.79219400
C      1.18411600   -2.01208900   -0.59139300
C      0.77449900   -2.63444400    0.73997400
H     -1.42343600    3.07750400    1.95267700
H     -0.81181500    4.65499100    1.42590600
H      0.26960100    3.51843200    2.27022700
H     -2.99955700   -0.18114000   -0.16858100
H     -2.27004500    1.39787000   -0.02380700
H     -1.99348100   -0.97269400    1.92636600
H     -1.10840500    0.54378000    2.11965800
H     -2.87098800    0.53287800    2.21196100
H     -1.82476900    0.25426300   -2.40387900
H     -0.35549700   -0.68765000   -2.47449300
H     -3.10011500   -1.75147600   -1.58753300
H     -2.27950600   -2.09854700   -3.10317300
H     -1.61815400   -2.70456500   -1.57770300
H      2.62730000    1.02841800   -0.84070500
H      3.24497900   -0.54989700   -1.32740500
H      2.82684000    0.38555000    1.55955500
H      3.51668000   -1.18145900    1.09321900
H      4.38917200    0.30837400    0.73143100
H      2.15611300   -2.40102700   -0.89392300
H      0.48419900   -2.31017400   -1.36943400
H      1.48717600   -2.38660200    1.52656600
H      0.73436100   -3.72162800    0.64347200
H     -0.20962600   -2.28371900    1.04461800
