51
BZ  B3LYP-D3BJ/def2-TZVP optimised  E=-1133.659551674436 Eh  imaginary_modes=0
O     -2.97684400    0.38463000    2.19726100
C     -2.21015300    0.22240600    1.01675700
C     -0.72649500    0.37400600    1.42281600
O     -0.40257300    0.64334700    2.55748200
O      0.10614100    0.19434900    0.41242600
C      1.54048200    0.35462900    0.64885500
C      2.07666100   -0.97584900    1.15150700
C      3.60845500   -1.05840100    1.18318200
N      4.29930800   -0.64922000   -0.03584900
C      4.61642700    0.76963400   -0.12030100
C      3.40180800    1.66879500   -0.47622200
C      2.12584500    0.84087600   -0.68400200
C      2.39836900   -0.30611600   -1.66924400
C      3.67123600   -1.11356600   -1.26706100
C     -2.52748500    1.33735400    0.01293500
C     -2.06976300    1.26995100   -1.30436900
C     -2.33803000    2.29819100   -2.19613700
C     -3.06729000    3.41015200   -1.78503300
C     -3.52564800    3.48114200   -0.47678100
C     -3.25622900    2.45018600    0.41855800
C     -2.48465300   -1.17785900    0.46683500
C     -3.55824100   -1.39694600   -0.39216900
C     -3.87088600   -2.68141100   -0.82045500
C     -3.11181600   -3.76492800   -0.39555600
C     -2.04463900   -3.55603100    0.47039800
C     -1.73826600   -2.27173300    0.90060200
H     -2.34130100    0.55576300    2.91194200
H      1.65413600    1.12911800    1.40805400
H      1.68565800   -1.75980100    0.49876500
H      1.68215000   -1.17174400    2.15084700
H      3.87705500   -2.09605700    1.40646500
H      4.00142400   -0.45342500    2.00314000
H      5.39329700    0.88507700   -0.88150700
H      5.06044100    1.07561500    0.82752800
H      3.60373200    2.21711200   -1.39944900
H      3.23196000    2.42099600    0.29770500
H      1.36539400    1.49758200   -1.11139900
H      1.52448200   -0.95761500   -1.72865200
H      2.53328400    0.12208700   -2.66511500
H      3.43604600   -2.17327200   -1.15574800
H      4.41741000   -1.04038500   -2.06255000
H     -1.50698800    0.40779400   -1.63266900
H     -1.98046400    2.22998300   -3.21592800
H     -3.27853100    4.21109700   -2.48215100
H     -4.09832100    4.33895400   -0.14736100
H     -3.61989300    2.49521600    1.43438000
H     -4.15320400   -0.55922200   -0.72894000
H     -4.70984900   -2.83405000   -1.48753900
H     -3.35150300   -4.76504600   -0.73351600
H     -1.45028600   -4.39350200    0.81335600
H     -0.91184100   -2.12986600    1.58561200
