16
DMMP  B3LYP-D3BJ/def2-TZVP optimised  E=-686.808849596014 Eh  imaginary_modes=0
C     -2.06898800   -0.97478700    0.30860400
O     -0.88801000   -0.24581900    0.67368500
P      0.14647200    0.24283000   -0.45254500
O      0.17181600   -0.62250200   -1.64140600
O      1.49885700    0.35713300    0.37911400
C      2.20747000   -0.83889100    0.74303000
C     -0.22629700    1.97135400   -0.75218200
H     -2.38245800   -1.52799400    1.19147900
H     -2.86189500   -0.28352100    0.01478000
H     -1.85599300   -1.65916100   -0.51135300
H      2.34654700   -1.47736400   -0.12943800
H      1.65833300   -1.37885900    1.51576000
H      3.17211000   -0.52107200    1.13086700
H     -0.20928400    2.53491600    0.17958300
H     -1.21567300    2.04171900   -1.20467600
H      0.50699100    2.38201700   -1.44530400
