21
GA  B3LYP-D3BJ/def2-TZVP optimised  E=-798.445988543130 Eh  imaginary_modes=0
C      3.07548800    0.67118300    0.67872600
C      2.01869700   -0.18815000    0.02884700
O      1.00822500    0.69577300   -0.53232200
P     -0.21319100    0.08077400   -1.32739500
O      0.05625200   -0.84775700   -2.42547900
N     -1.24876600   -0.50125900   -0.19150700
C     -2.22289200   -1.52663500   -0.55904500
C     -1.60146500    0.29447200    0.97971700
C     -0.91819800    1.63130400   -1.89237800
N     -1.47105400    2.57771800   -2.24544200
H      3.53450600    1.33614200   -0.05320800
H      2.64755400    1.27660300    1.47865700
H      3.85334800    0.03479800    1.10497300
H      1.53558400   -0.84951200    0.75131300
H      2.42716700   -0.79389900   -0.78059800
H     -2.32416900   -2.23740700    0.26421600
H     -1.87744700   -2.05597000   -1.44277000
H     -3.20509300   -1.08674000   -0.76227100
H     -1.72425600   -0.36427400    1.84218600
H     -2.53696500    0.84206800    0.82337800
H     -0.81332100    1.01076400    1.20087800
