18
GB  B3LYP-D3BJ/def2-TZVP optimised  E=-750.175080111106 Eh  imaginary_modes=0
C      2.86359800   -0.22198300   -0.42276000
P      1.49058700   -0.21681300    0.72211300
O      1.46405100    0.82198900    1.75139900
F      1.57484300   -1.66389300    1.34934000
O      0.22752400   -0.32172500   -0.22134800
C     -1.11546700    0.01092400    0.26954800
C     -2.06842000   -0.96262600   -0.39130800
C     -1.39895800    1.46515500   -0.04888200
H      3.79015000   -0.32657100    0.14101400
H      2.76933500   -1.04231600   -1.13301700
H      2.87754800    0.72679500   -0.95779200
H     -1.11994400   -0.13499900    1.35168200
H     -3.08842800   -0.77085300   -0.05365300
H     -2.03624200   -0.84987800   -1.47650400
H     -1.80723000   -1.99065800   -0.13982700
H     -1.35254200    1.63306600   -1.12669900
H     -0.67309100    2.10943400    0.44585200
H     -2.39731300    1.73495400    0.30085500
