27
GD  B3LYP-D3BJ/def2-TZVP optimised  E=-868.088441051370 Eh  imaginary_modes=0
C      3.45508600    0.73823100   -1.28793500
P      1.96665500   -0.21463000   -1.55976400
O      2.11315400   -1.64788100   -1.81189600
F      1.31968900    0.54262200   -2.78485000
O      1.03140700    0.20403400   -0.35915400
C     -0.01876600   -0.68553900    0.15249800
C      0.52314300   -1.32481800    1.41617200
C     -1.31442700    0.13816400    0.28718300
C     -1.14450500    1.29396000    1.28009000
C     -1.68905900    0.69915100   -1.09198100
C     -2.43881900   -0.79482300    0.76070600
H      4.09642300    0.65003300   -2.16434400
H      3.21251100    1.78572900   -1.11324600
H      3.97657900    0.33388800   -0.42128300
H     -0.18363300   -1.46182800   -0.59714300
H     -0.20542200   -2.00877400    1.85045800
H      1.41837000   -1.89761800    1.17446700
H      0.78171000   -0.56982400    2.15860200
H     -0.95784500    0.93460500    2.29328400
H     -2.05327700    1.89838400    1.30812600
H     -0.31731500    1.94230300    0.98917100
H     -2.64380000    1.22532400   -1.03650600
H     -1.78947000   -0.10155200   -1.82870200
H     -0.93765400    1.39816300   -1.45629200
H     -2.54144100   -1.65938700    0.10020500
H     -2.26947300   -1.15850700    1.77461800
H     -3.38981900   -0.25940900    0.75689000
