25
GF  B3LYP-D3BJ/def2-TZVP optimised  E=-866.886010315944 Eh  imaginary_modes=0
C      3.36405300    0.22389600   -1.05349900
P      2.45559100   -0.44585100    0.33318800
O      2.51051200   -1.89125600    0.54939000
F      3.06950900    0.35193100    1.55090100
O      1.02725700    0.20670200    0.17758800
C     -0.12653800   -0.29331400    0.93963800
C     -1.02451800    0.90561500    1.20391600
C     -1.65264000    1.44845700   -0.08165200
C     -2.38214200    0.34688700   -0.85433800
C     -1.45188300   -0.83258500   -1.14810100
C     -0.82484000   -1.38121000    0.13462400
H      3.25693900    1.30692000   -1.09595900
H      4.41578200   -0.03867800   -0.94327000
H      2.98115300   -0.21924300   -1.97197400
H      0.24791400   -0.70315300    1.87894100
H     -0.45046400    1.67942900    1.71733900
H     -1.81162600    0.57918400    1.89149400
H     -2.33823400    2.26376500    0.16050200
H     -0.86652000    1.87349500   -0.71202300
H     -2.79097600    0.74749300   -1.78518000
H     -3.23541000   -0.00549200   -0.26288900
H     -0.65847500   -0.50722600   -1.82745500
H     -1.99528400   -1.62951900   -1.66070400
H     -1.60602500   -1.80629200    0.77376300
H     -0.11313300   -2.17995500   -0.07610300
