22
HN  B3LYP-D3BJ/def2-TZVP optimised  E=-1671.042988508719 Eh  imaginary_modes=0
Cl     4.15168900   -0.46166000   -0.36870100
C      2.61764900    0.26975400    0.24027000
C      1.41756300   -0.55921800   -0.19402900
N      0.18494000    0.08576900    0.24599700
C     -0.79001200   -0.81610800    0.84975000
C     -1.44768900   -1.78427600   -0.13057500
Cl    -2.54556800   -2.90861800    0.75444800
C     -0.31402200    1.05491900   -0.72137100
C     -1.29514800    2.06819200   -0.15784700
Cl    -3.01467800    1.49472800   -0.15430100
H      2.68770100    0.31169500    1.32376100
H      2.57840300    1.28188500   -0.15503700
H      1.45030300   -0.71258700   -1.28071500
H      1.49379100   -1.54566100    0.26376700
H     -1.56630900   -0.23357400    1.34236200
H     -0.28058100   -1.38693600    1.62735300
H     -2.06474100   -1.26518500   -0.85855300
H     -0.71700700   -2.40433400   -0.64573300
H     -0.74887900    0.58931800   -1.61878900
H      0.54905500    1.62939600   -1.06731400
H     -1.04658900    2.32494700    0.86901800
H     -1.29986900    2.96755300   -0.76787900
