42
VX  B3LYP-D3BJ/def2-TZVP optimised  E=-1379.505010308281 Eh  imaginary_modes=0
C      5.83427300    0.33705600    0.68075800
C      5.00051900    0.43359100   -0.57617100
O      4.31351800   -0.82335200   -0.79758000
P      2.72161200   -0.86027500   -0.92785700
O      2.10406800    0.05273100   -1.90819200
C      2.47953600   -2.61450500   -1.25132500
S      2.07335500   -0.46990600    1.04356000
C      0.54747000    0.49066600    0.69825400
C     -0.59093200   -0.36906800    0.15342600
N     -1.79021500    0.40672800   -0.09541100
C     -2.64210100    0.75454800    1.05637700
C     -2.60076900   -0.24343200    2.21859800
C     -2.36441100    2.17933000    1.54875900
C     -2.49597400    0.04870000   -1.33262900
C     -3.33460700    1.21110800   -1.86203700
C     -3.32508400   -1.24029300   -1.22737900
H      6.54004200   -0.49212900    0.61336600
H      5.19667600    0.18441000    1.55202100
H      6.39956000    1.26092600    0.82227800
H      4.27042300    1.24176700   -0.50997100
H      5.61664700    0.60603000   -1.45904300
H      2.95039700   -3.21502800   -0.47445500
H      1.41034700   -2.82009400   -1.27356600
H      2.91668800   -2.85328300   -2.22164600
H      0.78676200    1.28706000   -0.00151200
H      0.29755600    0.93073600    1.66227300
H     -0.74334700   -1.22554700    0.82295500
H     -0.26047100   -0.77345900   -0.80256700
H     -3.66987400    0.74923200    0.68987200
H     -1.62695800   -0.25942700    2.71216200
H     -2.82989000   -1.25743400    1.88794600
H     -3.34055900    0.04175400    2.96857600
H     -1.36952300    2.26216000    1.98912400
H     -2.42188000    2.88362200    0.71908500
H     -3.09206700    2.47546200    2.30914100
H     -1.70673700   -0.12451400   -2.06836500
H     -3.73764700    0.96381200   -2.84612400
H     -2.72191900    2.10840200   -1.95307400
H     -4.18216000    1.43856600   -1.21219900
H     -3.75144000   -1.50779700   -2.19681700
H     -2.70823800   -2.07545200   -0.88971200
H     -4.15265100   -1.12340300   -0.52370700
